NAME evaporation_srl_ilp
* Max problem is converted into Min one
ROWS
 N  OBJ
 L  constraint1_20
 L  constraint1_5891
 L  constraint1_3104
 L  constraint1_3101
 L  constraint1_3105
 L  constraint1_3102
 L  constraint1_3106
 L  constraint1_3100
 L  constraint1_3103
 L  constraint1_5511
 L  constraint1_5510
 L  constraint1_3070
 L  constraint1_4091
 L  constraint1_1590
 L  constraint1_1020
 L  constraint1_1021
 L  constraint2_3930
 L  constraint2_3931
 L  constraint2_3932
 L  constraint2_3933
 L  constraint2_20
 L  constraint2_21
 L  constraint2_22
 L  constraint2_23
 L  constraint2_5890
 L  constraint2_5891
 L  constraint2_5892
 L  constraint2_5893
 L  constraint2_3100
 L  constraint2_3101
 L  constraint2_3102
 L  constraint2_3103
 L  constraint2_5510
 L  constraint2_5511
 L  constraint2_5512
 L  constraint2_5513
 L  constraint2_3070
 L  constraint2_3071
 L  constraint2_3072
 L  constraint2_3073
 L  constraint2_550
 L  constraint2_551
 L  constraint2_552
 L  constraint2_553
 L  constraint2_4090
 L  constraint2_4091
 L  constraint2_4092
 L  constraint2_4093
 L  constraint2_1590
 L  constraint2_1591
 L  constraint2_1592
 L  constraint2_1593
 L  constraint2_1020
 L  constraint2_1021
 L  constraint2_1022
 L  constraint2_1023
COLUMNS
    MARKER    'MARKER'                 'INTORG'
    Z_2_0_0   OBJ       -1.2465467928573350e-03
    Z_2_0_0   constraint1_20  1
    Z_2_0_0   constraint2_20  1
    Z_2_0_1   OBJ       -1.2448634605028218e-03
    Z_2_0_1   constraint1_20  1
    Z_2_0_1   constraint2_21  1
    Z_2_0_2   OBJ       -1.4389824774881104e-03
    Z_2_0_2   constraint1_20  1
    Z_2_0_2   constraint2_22  1
    Z_2_0_3   OBJ       -7.4713962403614820e-01
    Z_2_0_3   constraint1_20  1
    Z_2_0_3   constraint2_23  1
    Z_2_0_4   OBJ       -1.4892998323300363e-01
    Z_2_0_4   constraint1_20  1
    Z_589_1_0  OBJ       -4.5468974396261930e-04
    Z_589_1_0  constraint1_5891  1
    Z_589_1_0  constraint2_5890  1
    Z_589_1_1  OBJ       -1.0199982013435671e-03
    Z_589_1_1  constraint1_5891  1
    Z_589_1_1  constraint2_5891  1
    Z_589_1_2  OBJ       -8.0464941720671435e-01
    Z_589_1_2  constraint1_5891  1
    Z_589_1_2  constraint2_5892  1
    Z_589_1_3  OBJ       -5.4563938479612354e-03
    Z_589_1_3  constraint1_5891  1
    Z_589_1_3  constraint2_5893  1
    Z_589_1_4  OBJ       -8.8419501000018358e-02
    Z_589_1_4  constraint1_5891  1
    Z_310_4_0  OBJ       -5.3901021506820197e-03
    Z_310_4_0  constraint1_3104  1
    Z_310_4_0  constraint2_3100  1
    Z_310_4_1  OBJ       -1.3511334407468423e-02
    Z_310_4_1  constraint1_3104  1
    Z_310_4_1  constraint2_3101  1
    Z_310_4_2  OBJ       -5.5239357991939254e-04
    Z_310_4_2  constraint1_3104  1
    Z_310_4_2  constraint2_3102  1
    Z_310_4_3  OBJ       -6.5923796946370683e-02
    Z_310_4_3  constraint1_3104  1
    Z_310_4_3  constraint2_3103  1
    Z_310_4_4  OBJ       -8.1462237291555950e-01
    Z_310_4_4  constraint1_3104  1
    Z_310_1_0  OBJ       -3.3969371549368087e-03
    Z_310_1_0  constraint1_3101  1
    Z_310_1_0  constraint2_3100  1
    Z_310_1_1  OBJ       -7.2695062616437737e-04
    Z_310_1_1  constraint1_3101  1
    Z_310_1_1  constraint2_3101  1
    Z_310_1_2  OBJ       -2.7811444365013461e-03
    Z_310_1_2  constraint1_3101  1
    Z_310_1_2  constraint2_3102  1
    Z_310_1_3  OBJ       -4.8508142121894179e-02
    Z_310_1_3  constraint1_3101  1
    Z_310_1_3  constraint2_3103  1
    Z_310_1_4  OBJ       -8.4458682566050325e-01
    Z_310_1_4  constraint1_3101  1
    Z_310_5_0  OBJ       -3.3585356021063810e-03
    Z_310_5_0  constraint1_3105  1
    Z_310_5_0  constraint2_3100  1
    Z_310_5_1  OBJ       -5.9545352696663653e-02
    Z_310_5_1  constraint1_3105  1
    Z_310_5_1  constraint2_3101  1
    Z_310_5_2  OBJ       -9.9365373387002610e-03
    Z_310_5_2  constraint1_3105  1
    Z_310_5_2  constraint2_3102  1
    Z_310_5_3  OBJ       -1.3087236434794131e-01
    Z_310_5_3  constraint1_3105  1
    Z_310_5_3  constraint2_3103  1
    Z_310_5_4  OBJ       -6.9628721001458826e-01
    Z_310_5_4  constraint1_3105  1
    Z_310_2_0  OBJ       -1.5478496610851525e-02
    Z_310_2_0  constraint1_3102  1
    Z_310_2_0  constraint2_3100  1
    Z_310_2_1  OBJ       -1.4299817935441292e-02
    Z_310_2_1  constraint1_3102  1
    Z_310_2_1  constraint2_3101  1
    Z_310_2_2  OBJ       -2.1029490438600956e-02
    Z_310_2_2  constraint1_3102  1
    Z_310_2_2  constraint2_3102  1
    Z_310_2_3  OBJ       -5.1973831431836474e-02
    Z_310_2_3  constraint1_3102  1
    Z_310_2_3  constraint2_3103  1
    Z_310_2_4  OBJ       -7.9721836358326992e-01
    Z_310_2_4  constraint1_3102  1
    Z_310_6_0  OBJ       -1.5478496610851525e-02
    Z_310_6_0  constraint1_3106  1
    Z_310_6_0  constraint2_3100  1
    Z_310_6_1  OBJ       -1.4299817935441292e-02
    Z_310_6_1  constraint1_3106  1
    Z_310_6_1  constraint2_3101  1
    Z_310_6_2  OBJ       -2.1029490438600956e-02
    Z_310_6_2  constraint1_3106  1
    Z_310_6_2  constraint2_3102  1
    Z_310_6_3  OBJ       -5.1973831431836474e-02
    Z_310_6_3  constraint1_3106  1
    Z_310_6_3  constraint2_3103  1
    Z_310_6_4  OBJ       -7.9721836358326992e-01
    Z_310_6_4  constraint1_3106  1
    Z_310_0_0  OBJ       -1.1311895031943463e-04
    Z_310_0_0  constraint1_3100  1
    Z_310_0_0  constraint2_3100  1
    Z_310_0_1  OBJ       -2.7120625673078986e-04
    Z_310_0_1  constraint1_3100  1
    Z_310_0_1  constraint2_3101  1
    Z_310_0_2  OBJ       -7.5208638215893305e-03
    Z_310_0_2  constraint1_3100  1
    Z_310_0_2  constraint2_3102  1
    Z_310_0_3  OBJ       -1.4594674998151078e-02
    Z_310_0_3  constraint1_3100  1
    Z_310_0_3  constraint2_3103  1
    Z_310_0_4  OBJ       -8.7750013597320919e-01
    Z_310_0_4  constraint1_3100  1
    Z_310_3_0  OBJ       -2.8558395503757101e-03
    Z_310_3_0  constraint1_3103  1
    Z_310_3_0  constraint2_3100  1
    Z_310_3_1  OBJ       -6.0123221527306845e-03
    Z_310_3_1  constraint1_3103  1
    Z_310_3_1  constraint2_3101  1
    Z_310_3_2  OBJ       -5.8331213837716969e-03
    Z_310_3_2  constraint1_3103  1
    Z_310_3_2  constraint2_3102  1
    Z_310_3_3  OBJ       -3.6478386059560823e-02
    Z_310_3_3  constraint1_3103  1
    Z_310_3_3  constraint2_3103  1
    Z_310_3_4  OBJ       -8.4882033085356112e-01
    Z_310_3_4  constraint1_3103  1
    Z_551_1_0  OBJ       -1.1117997077219680e-04
    Z_551_1_0  constraint1_5511  1
    Z_551_1_0  constraint2_5510  1
    Z_551_1_1  OBJ       -1.1880643767414249e-03
    Z_551_1_1  constraint1_5511  1
    Z_551_1_1  constraint2_5511  1
    Z_551_1_2  OBJ       -7.8084168539355192e-01
    Z_551_1_2  constraint1_5511  1
    Z_551_1_2  constraint2_5512  1
    Z_551_1_3  OBJ       -4.4090964952070927e-03
    Z_551_1_3  constraint1_5511  1
    Z_551_1_3  constraint2_5513  1
    Z_551_1_4  OBJ       -1.1344997376372742e-01
    Z_551_1_4  constraint1_5511  1
    Z_551_0_0  OBJ       -7.6091592429467836e-01
    Z_551_0_0  constraint1_5510  1
    Z_551_0_0  constraint2_5510  1
    Z_551_0_1  OBJ       -1.1406476047696771e-02
    Z_551_0_1  constraint1_5510  1
    Z_551_0_1  constraint2_5511  1
    Z_551_0_2  OBJ       -1.3036308101653869e-02
    Z_551_0_2  constraint1_5510  1
    Z_551_0_2  constraint2_5512  1
    Z_551_0_3  OBJ       -3.4980648326807508e-02
    Z_551_0_3  constraint1_5510  1
    Z_551_0_3  constraint2_5513  1
    Z_551_0_4  OBJ       -7.9660643229163469e-02
    Z_551_0_4  constraint1_5510  1
    Z_307_0_0  OBJ       -3.4362313638944429e-03
    Z_307_0_0  constraint1_3070  1
    Z_307_0_0  constraint2_3070  1
    Z_307_0_1  OBJ       -7.8739910760688225e-01
    Z_307_0_1  constraint1_3070  1
    Z_307_0_1  constraint2_3071  1
    Z_307_0_2  OBJ       -5.1376897119668622e-03
    Z_307_0_2  constraint1_3070  1
    Z_307_0_2  constraint2_3072  1
    Z_307_0_3  OBJ       -1.1844447440321858e-02
    Z_307_0_3  constraint1_3070  1
    Z_307_0_3  constraint2_3073  1
    Z_307_0_4  OBJ       -9.2182523876934569e-02
    Z_307_0_4  constraint1_3070  1
    Z_409_1_0  OBJ       -2.0934494373783044e-01
    Z_409_1_0  constraint1_4091  1
    Z_409_1_0  constraint2_4090  1
    Z_409_1_1  OBJ       -1.0155366994149038e-02
    Z_409_1_1  constraint1_4091  1
    Z_409_1_1  constraint2_4091  1
    Z_409_1_2  OBJ       -1.4648870888391603e-02
    Z_409_1_2  constraint1_4091  1
    Z_409_1_2  constraint2_4092  1
    Z_409_1_3  OBJ       -1.2081776484154851e-01
    Z_409_1_3  constraint1_4091  1
    Z_409_1_3  constraint2_4093  1
    Z_409_1_4  OBJ       -5.4503305353808051e-01
    Z_409_1_4  constraint1_4091  1
    Z_159_0_0  OBJ       -9.2076848991905508e-03
    Z_159_0_0  constraint1_1590  1
    Z_159_0_0  constraint2_1590  1
    Z_159_0_1  OBJ       -7.7372847838588010e-01
    Z_159_0_1  constraint1_1590  1
    Z_159_0_1  constraint2_1591  1
    Z_159_0_2  OBJ       -4.5078603679594145e-03
    Z_159_0_2  constraint1_1590  1
    Z_159_0_2  constraint2_1592  1
    Z_159_0_3  OBJ       -7.5131888461221860e-02
    Z_159_0_3  constraint1_1590  1
    Z_159_0_3  constraint2_1593  1
    Z_159_0_4  OBJ       -3.7424087885747942e-02
    Z_159_0_4  constraint1_1590  1
    Z_102_0_0  OBJ       -6.0227069471123340e-01
    Z_102_0_0  constraint1_1020  1
    Z_102_0_0  constraint2_1020  1
    Z_102_0_1  OBJ       -1.8837606251930886e-02
    Z_102_0_1  constraint1_1020  1
    Z_102_0_1  constraint2_1021  1
    Z_102_0_2  OBJ       -1.2536450228701630e-02
    Z_102_0_2  constraint1_1020  1
    Z_102_0_2  constraint2_1022  1
    Z_102_0_3  OBJ       -5.0436004738524014e-03
    Z_102_0_3  constraint1_1020  1
    Z_102_0_3  constraint2_1023  1
    Z_102_0_4  OBJ       -2.6131164833428161e-01
    Z_102_0_4  constraint1_1020  1
    Z_102_1_0  OBJ       -2.2191030646254110e-04
    Z_102_1_0  constraint1_1021  1
    Z_102_1_0  constraint2_1020  1
    Z_102_1_1  OBJ       -1.4043289230143785e-03
    Z_102_1_1  constraint1_1021  1
    Z_102_1_1  constraint2_1021  1
    Z_102_1_2  OBJ       -5.7644871221470018e-01
    Z_102_1_2  constraint1_1021  1
    Z_102_1_2  constraint2_1022  1
    Z_102_1_3  OBJ       -1.5935047705612885e-03
    Z_102_1_3  constraint1_1021  1
    Z_102_1_3  constraint2_1023  1
    Z_102_1_4  OBJ       -3.2033154378526169e-01
    Z_102_1_4  constraint1_1021  1
    MARKER    'MARKER'                 'INTEND'
RHS
    RHS1      constraint1_20  1
    RHS1      constraint1_5891  1
    RHS1      constraint1_3104  1
    RHS1      constraint1_3101  1
    RHS1      constraint1_3105  1
    RHS1      constraint1_3102  1
    RHS1      constraint1_3106  1
    RHS1      constraint1_3100  1
    RHS1      constraint1_3103  1
    RHS1      constraint1_5511  1
    RHS1      constraint1_5510  1
    RHS1      constraint1_3070  1
    RHS1      constraint1_4091  1
    RHS1      constraint1_1590  1
    RHS1      constraint1_1020  1
    RHS1      constraint1_1021  1
    RHS1      constraint2_3930  1
    RHS1      constraint2_3931  1
    RHS1      constraint2_3932  1
    RHS1      constraint2_3933  1
    RHS1      constraint2_20  1
    RHS1      constraint2_21  1
    RHS1      constraint2_22  1
    RHS1      constraint2_23  1
    RHS1      constraint2_5890  1
    RHS1      constraint2_5891  1
    RHS1      constraint2_5892  1
    RHS1      constraint2_5893  1
    RHS1      constraint2_3100  1
    RHS1      constraint2_3101  1
    RHS1      constraint2_3102  1
    RHS1      constraint2_3103  1
    RHS1      constraint2_5510  1
    RHS1      constraint2_5511  1
    RHS1      constraint2_5512  1
    RHS1      constraint2_5513  1
    RHS1      constraint2_3070  1
    RHS1      constraint2_3071  1
    RHS1      constraint2_3072  1
    RHS1      constraint2_3073  1
    RHS1      constraint2_550  1
    RHS1      constraint2_551  1
    RHS1      constraint2_552  1
    RHS1      constraint2_553  1
    RHS1      constraint2_4090  1
    RHS1      constraint2_4091  1
    RHS1      constraint2_4092  1
    RHS1      constraint2_4093  1
    RHS1      constraint2_1590  1
    RHS1      constraint2_1591  1
    RHS1      constraint2_1592  1
    RHS1      constraint2_1593  1
    RHS1      constraint2_1020  1
    RHS1      constraint2_1021  1
    RHS1      constraint2_1022  1
    RHS1      constraint2_1023  1
BOUNDS
 UP BND1      Z_2_0_0   1
 UP BND1      Z_2_0_1   1
 UP BND1      Z_2_0_2   1
 UP BND1      Z_2_0_3   1
 UP BND1      Z_2_0_4   1
 UP BND1      Z_589_1_0  1
 UP BND1      Z_589_1_1  1
 UP BND1      Z_589_1_2  1
 UP BND1      Z_589_1_3  1
 UP BND1      Z_589_1_4  1
 UP BND1      Z_310_4_0  1
 UP BND1      Z_310_4_1  1
 UP BND1      Z_310_4_2  1
 UP BND1      Z_310_4_3  1
 UP BND1      Z_310_4_4  1
 UP BND1      Z_310_1_0  1
 UP BND1      Z_310_1_1  1
 UP BND1      Z_310_1_2  1
 UP BND1      Z_310_1_3  1
 UP BND1      Z_310_1_4  1
 UP BND1      Z_310_5_0  1
 UP BND1      Z_310_5_1  1
 UP BND1      Z_310_5_2  1
 UP BND1      Z_310_5_3  1
 UP BND1      Z_310_5_4  1
 UP BND1      Z_310_2_0  1
 UP BND1      Z_310_2_1  1
 UP BND1      Z_310_2_2  1
 UP BND1      Z_310_2_3  1
 UP BND1      Z_310_2_4  1
 UP BND1      Z_310_6_0  1
 UP BND1      Z_310_6_1  1
 UP BND1      Z_310_6_2  1
 UP BND1      Z_310_6_3  1
 UP BND1      Z_310_6_4  1
 UP BND1      Z_310_0_0  1
 UP BND1      Z_310_0_1  1
 UP BND1      Z_310_0_2  1
 UP BND1      Z_310_0_3  1
 UP BND1      Z_310_0_4  1
 UP BND1      Z_310_3_0  1
 UP BND1      Z_310_3_1  1
 UP BND1      Z_310_3_2  1
 UP BND1      Z_310_3_3  1
 UP BND1      Z_310_3_4  1
 UP BND1      Z_551_1_0  1
 UP BND1      Z_551_1_1  1
 UP BND1      Z_551_1_2  1
 UP BND1      Z_551_1_3  1
 UP BND1      Z_551_1_4  1
 UP BND1      Z_551_0_0  1
 UP BND1      Z_551_0_1  1
 UP BND1      Z_551_0_2  1
 UP BND1      Z_551_0_3  1
 UP BND1      Z_551_0_4  1
 UP BND1      Z_307_0_0  1
 UP BND1      Z_307_0_1  1
 UP BND1      Z_307_0_2  1
 UP BND1      Z_307_0_3  1
 UP BND1      Z_307_0_4  1
 UP BND1      Z_409_1_0  1
 UP BND1      Z_409_1_1  1
 UP BND1      Z_409_1_2  1
 UP BND1      Z_409_1_3  1
 UP BND1      Z_409_1_4  1
 UP BND1      Z_159_0_0  1
 UP BND1      Z_159_0_1  1
 UP BND1      Z_159_0_2  1
 UP BND1      Z_159_0_3  1
 UP BND1      Z_159_0_4  1
 UP BND1      Z_102_0_0  1
 UP BND1      Z_102_0_1  1
 UP BND1      Z_102_0_2  1
 UP BND1      Z_102_0_3  1
 UP BND1      Z_102_0_4  1
 UP BND1      Z_102_1_0  1
 UP BND1      Z_102_1_1  1
 UP BND1      Z_102_1_2  1
 UP BND1      Z_102_1_3  1
 UP BND1      Z_102_1_4  1
QUADOBJ
    Z_2_0_0   Z_310_4_0  -5.2851359844762427e-02
    Z_2_0_0   Z_310_2_0  -5.2851359844762427e-02
    Z_2_0_0   Z_310_6_0  -5.2851359844762427e-02
    Z_2_0_0   Z_310_0_0  -3.5555555555555549e-03
    Z_2_0_0   Z_551_1_0  -4.3555555555555549e-02
    Z_2_0_0   Z_409_1_0  -6.3072201335402419e-03
    Z_2_0_0   Z_159_0_0  -9.1179143520495542e-04
    Z_2_0_1   Z_310_4_1  -5.2851359844762427e-02
    Z_2_0_1   Z_310_2_1  -5.2851359844762427e-02
    Z_2_0_1   Z_310_6_1  -5.2851359844762427e-02
    Z_2_0_1   Z_310_0_1  -3.5555555555555549e-03
    Z_2_0_1   Z_551_1_1  -4.3555555555555549e-02
    Z_2_0_1   Z_409_1_1  -6.3072201335402419e-03
    Z_2_0_1   Z_159_0_1  -9.1179143520495542e-04
    Z_2_0_2   Z_310_4_2  -5.2851359844762427e-02
    Z_2_0_2   Z_310_2_2  -5.2851359844762427e-02
    Z_2_0_2   Z_310_6_2  -5.2851359844762427e-02
    Z_2_0_2   Z_310_0_2  -3.5555555555555549e-03
    Z_2_0_2   Z_551_1_2  -4.3555555555555549e-02
    Z_2_0_2   Z_409_1_2  -6.3072201335402419e-03
    Z_2_0_2   Z_159_0_2  -9.1179143520495542e-04
    Z_2_0_3   Z_310_4_3  -5.2851359844762427e-02
    Z_2_0_3   Z_310_2_3  -5.2851359844762427e-02
    Z_2_0_3   Z_310_6_3  -5.2851359844762427e-02
    Z_2_0_3   Z_310_0_3  -3.5555555555555549e-03
    Z_2_0_3   Z_551_1_3  -4.3555555555555549e-02
    Z_2_0_3   Z_409_1_3  -6.3072201335402419e-03
    Z_2_0_3   Z_159_0_3  -9.1179143520495542e-04
    Z_2_0_4   Z_310_4_4  -5.2851359844762427e-02
    Z_2_0_4   Z_310_2_4  -5.2851359844762427e-02
    Z_2_0_4   Z_310_6_4  -5.2851359844762427e-02
    Z_2_0_4   Z_310_0_4  -3.5555555555555549e-03
    Z_2_0_4   Z_551_1_4  -4.3555555555555549e-02
    Z_2_0_4   Z_409_1_4  -6.3072201335402419e-03
    Z_2_0_4   Z_159_0_4  -9.1179143520495542e-04
    Z_589_1_0  Z_551_1_0  -5.4238911117950798e-04
    Z_589_1_0  Z_159_0_0  -7.4837972079825477e-05
    Z_589_1_1  Z_551_1_1  -5.4238911117950798e-04
    Z_589_1_1  Z_159_0_1  -7.4837972079825477e-05
    Z_589_1_2  Z_551_1_2  -5.4238911117950798e-04
    Z_589_1_2  Z_159_0_2  -7.4837972079825477e-05
    Z_589_1_3  Z_551_1_3  -5.4238911117950798e-04
    Z_589_1_3  Z_159_0_3  -7.4837972079825477e-05
    Z_589_1_4  Z_551_1_4  -5.4238911117950798e-04
    Z_589_1_4  Z_159_0_4  -7.4837972079825477e-05
    Z_310_4_0  Z_551_1_0  -8.2644628099173556e-03
    Z_310_4_0  Z_551_0_0  -1.9999999999999996e-01
    Z_310_4_0  Z_307_0_0  -2.8427809379498837e-02
    Z_310_4_0  Z_409_1_0  -1.4431100250384746e-03
    Z_310_4_0  Z_159_0_0  -6.9693955971391011e-02
    Z_310_4_0  Z_102_0_0  -1.9999999999999996e-01
    Z_310_4_1  Z_551_1_1  -8.2644628099173556e-03
    Z_310_4_1  Z_551_0_1  -1.9999999999999996e-01
    Z_310_4_1  Z_307_0_1  -2.8427809379498837e-02
    Z_310_4_1  Z_409_1_1  -1.4431100250384746e-03
    Z_310_4_1  Z_159_0_1  -6.9693955971391011e-02
    Z_310_4_1  Z_102_0_1  -1.9999999999999996e-01
    Z_310_4_2  Z_551_1_2  -8.2644628099173556e-03
    Z_310_4_2  Z_551_0_2  -1.9999999999999996e-01
    Z_310_4_2  Z_307_0_2  -2.8427809379498837e-02
    Z_310_4_2  Z_409_1_2  -1.4431100250384746e-03
    Z_310_4_2  Z_159_0_2  -6.9693955971391011e-02
    Z_310_4_2  Z_102_0_2  -1.9999999999999996e-01
    Z_310_4_3  Z_551_1_3  -8.2644628099173556e-03
    Z_310_4_3  Z_551_0_3  -1.9999999999999996e-01
    Z_310_4_3  Z_307_0_3  -2.8427809379498837e-02
    Z_310_4_3  Z_409_1_3  -1.4431100250384746e-03
    Z_310_4_3  Z_159_0_3  -6.9693955971391011e-02
    Z_310_4_3  Z_102_0_3  -1.9999999999999996e-01
    Z_310_4_4  Z_551_1_4  -8.2644628099173556e-03
    Z_310_4_4  Z_551_0_4  -1.9999999999999996e-01
    Z_310_4_4  Z_307_0_4  -2.8427809379498837e-02
    Z_310_4_4  Z_409_1_4  -1.4431100250384746e-03
    Z_310_4_4  Z_159_0_4  -6.9693955971391011e-02
    Z_310_4_4  Z_102_0_4  -1.9999999999999996e-01
    Z_310_5_0  Z_551_1_0  -8.8888888888888871e-04
    Z_310_5_0  Z_551_0_0  -1.9999999999999996e-01
    Z_310_5_0  Z_307_0_0  -2.3966173725493749e-02
    Z_310_5_0  Z_159_0_0  -6.9693955971391011e-02
    Z_310_5_0  Z_102_0_0  -1.9999999999999996e-01
    Z_310_5_1  Z_551_1_1  -8.8888888888888871e-04
    Z_310_5_1  Z_551_0_1  -1.9999999999999996e-01
    Z_310_5_1  Z_307_0_1  -2.3966173725493749e-02
    Z_310_5_1  Z_159_0_1  -6.9693955971391011e-02
    Z_310_5_1  Z_102_0_1  -1.9999999999999996e-01
    Z_310_5_2  Z_551_1_2  -8.8888888888888871e-04
    Z_310_5_2  Z_551_0_2  -1.9999999999999996e-01
    Z_310_5_2  Z_307_0_2  -2.3966173725493749e-02
    Z_310_5_2  Z_159_0_2  -6.9693955971391011e-02
    Z_310_5_2  Z_102_0_2  -1.9999999999999996e-01
    Z_310_5_3  Z_551_1_3  -8.8888888888888871e-04
    Z_310_5_3  Z_551_0_3  -1.9999999999999996e-01
    Z_310_5_3  Z_307_0_3  -2.3966173725493749e-02
    Z_310_5_3  Z_159_0_3  -6.9693955971391011e-02
    Z_310_5_3  Z_102_0_3  -1.9999999999999996e-01
    Z_310_5_4  Z_551_1_4  -8.8888888888888871e-04
    Z_310_5_4  Z_551_0_4  -1.9999999999999996e-01
    Z_310_5_4  Z_307_0_4  -2.3966173725493749e-02
    Z_310_5_4  Z_159_0_4  -6.9693955971391011e-02
    Z_310_5_4  Z_102_0_4  -1.9999999999999996e-01
    Z_310_2_0  Z_551_1_0  -8.2644628099173556e-03
    Z_310_2_0  Z_551_0_0  -1.9999999999999996e-01
    Z_310_2_0  Z_307_0_0  -2.8427809379498837e-02
    Z_310_2_0  Z_409_1_0  -1.1635519338017522e-03
    Z_310_2_0  Z_159_0_0  -7.8684202727266325e-02
    Z_310_2_0  Z_102_0_0  -1.9999999999999996e-01
    Z_310_2_1  Z_551_1_1  -8.2644628099173556e-03
    Z_310_2_1  Z_551_0_1  -1.9999999999999996e-01
    Z_310_2_1  Z_307_0_1  -2.8427809379498837e-02
    Z_310_2_1  Z_409_1_1  -1.1635519338017522e-03
    Z_310_2_1  Z_159_0_1  -7.8684202727266325e-02
    Z_310_2_1  Z_102_0_1  -1.9999999999999996e-01
    Z_310_2_2  Z_551_1_2  -8.2644628099173556e-03
    Z_310_2_2  Z_551_0_2  -1.9999999999999996e-01
    Z_310_2_2  Z_307_0_2  -2.8427809379498837e-02
    Z_310_2_2  Z_409_1_2  -1.1635519338017522e-03
    Z_310_2_2  Z_159_0_2  -7.8684202727266325e-02
    Z_310_2_2  Z_102_0_2  -1.9999999999999996e-01
    Z_310_2_3  Z_551_1_3  -8.2644628099173556e-03
    Z_310_2_3  Z_551_0_3  -1.9999999999999996e-01
    Z_310_2_3  Z_307_0_3  -2.8427809379498837e-02
    Z_310_2_3  Z_409_1_3  -1.1635519338017522e-03
    Z_310_2_3  Z_159_0_3  -7.8684202727266325e-02
    Z_310_2_3  Z_102_0_3  -1.9999999999999996e-01
    Z_310_2_4  Z_551_1_4  -8.2644628099173556e-03
    Z_310_2_4  Z_551_0_4  -1.9999999999999996e-01
    Z_310_2_4  Z_307_0_4  -2.8427809379498837e-02
    Z_310_2_4  Z_409_1_4  -1.1635519338017522e-03
    Z_310_2_4  Z_159_0_4  -7.8684202727266325e-02
    Z_310_2_4  Z_102_0_4  -1.9999999999999996e-01
    Z_310_6_0  Z_551_1_0  -8.2644628099173556e-03
    Z_310_6_0  Z_551_0_0  -1.9999999999999996e-01
    Z_310_6_0  Z_307_0_0  -2.8427809379498837e-02
    Z_310_6_0  Z_409_1_0  -1.1635519338017522e-03
    Z_310_6_0  Z_159_0_0  -7.8684202727266325e-02
    Z_310_6_0  Z_102_0_0  -1.9999999999999996e-01
    Z_310_6_1  Z_551_1_1  -8.2644628099173556e-03
    Z_310_6_1  Z_551_0_1  -1.9999999999999996e-01
    Z_310_6_1  Z_307_0_1  -2.8427809379498837e-02
    Z_310_6_1  Z_409_1_1  -1.1635519338017522e-03
    Z_310_6_1  Z_159_0_1  -7.8684202727266325e-02
    Z_310_6_1  Z_102_0_1  -1.9999999999999996e-01
    Z_310_6_2  Z_551_1_2  -8.2644628099173556e-03
    Z_310_6_2  Z_551_0_2  -1.9999999999999996e-01
    Z_310_6_2  Z_307_0_2  -2.8427809379498837e-02
    Z_310_6_2  Z_409_1_2  -1.1635519338017522e-03
    Z_310_6_2  Z_159_0_2  -7.8684202727266325e-02
    Z_310_6_2  Z_102_0_2  -1.9999999999999996e-01
    Z_310_6_3  Z_551_1_3  -8.2644628099173556e-03
    Z_310_6_3  Z_551_0_3  -1.9999999999999996e-01
    Z_310_6_3  Z_307_0_3  -2.8427809379498837e-02
    Z_310_6_3  Z_409_1_3  -1.1635519338017522e-03
    Z_310_6_3  Z_159_0_3  -7.8684202727266325e-02
    Z_310_6_3  Z_102_0_3  -1.9999999999999996e-01
    Z_310_6_4  Z_551_1_4  -8.2644628099173556e-03
    Z_310_6_4  Z_551_0_4  -1.9999999999999996e-01
    Z_310_6_4  Z_307_0_4  -2.8427809379498837e-02
    Z_310_6_4  Z_409_1_4  -1.1635519338017522e-03
    Z_310_6_4  Z_159_0_4  -7.8684202727266325e-02
    Z_310_6_4  Z_102_0_4  -1.9999999999999996e-01
    Z_310_0_0  Z_307_0_0  -1.2499999999999997e-02
    Z_310_0_0  Z_159_0_0  -2.5510204081632645e-04
    Z_310_0_1  Z_307_0_1  -1.2499999999999997e-02
    Z_310_0_1  Z_159_0_1  -2.5510204081632645e-04
    Z_310_0_2  Z_307_0_2  -1.2499999999999997e-02
    Z_310_0_2  Z_159_0_2  -2.5510204081632645e-04
    Z_310_0_3  Z_307_0_3  -1.2499999999999997e-02
    Z_310_0_3  Z_159_0_3  -2.5510204081632645e-04
    Z_310_0_4  Z_307_0_4  -1.2499999999999997e-02
    Z_310_0_4  Z_159_0_4  -2.5510204081632645e-04
    Z_551_1_0  Z_307_0_0  -1.2499999999999997e-02
    Z_551_1_0  Z_159_0_0  -3.4940422371480227e-02
    Z_551_1_0  Z_102_0_0  -8.2644628099173556e-03
    Z_551_1_0  Z_102_1_0  -1.1249999999999998e-01
    Z_551_1_1  Z_307_0_1  -1.2499999999999997e-02
    Z_551_1_1  Z_159_0_1  -3.4940422371480227e-02
    Z_551_1_1  Z_102_0_1  -8.2644628099173556e-03
    Z_551_1_1  Z_102_1_1  -1.1249999999999998e-01
    Z_551_1_2  Z_307_0_2  -1.2499999999999997e-02
    Z_551_1_2  Z_159_0_2  -3.4940422371480227e-02
    Z_551_1_2  Z_102_0_2  -8.2644628099173556e-03
    Z_551_1_2  Z_102_1_2  -1.1249999999999998e-01
    Z_551_1_3  Z_307_0_3  -1.2499999999999997e-02
    Z_551_1_3  Z_159_0_3  -3.4940422371480227e-02
    Z_551_1_3  Z_102_0_3  -8.2644628099173556e-03
    Z_551_1_3  Z_102_1_3  -1.1249999999999998e-01
    Z_551_1_4  Z_307_0_4  -1.2499999999999997e-02
    Z_551_1_4  Z_159_0_4  -3.4940422371480227e-02
    Z_551_1_4  Z_102_0_4  -8.2644628099173556e-03
    Z_551_1_4  Z_102_1_4  -1.1249999999999998e-01
    Z_551_0_0  Z_307_0_0  -6.4812323729993597e-03
    Z_551_0_0  Z_159_0_0  -1.9999999999999996e-01
    Z_551_0_0  Z_102_0_0  -1.9999999999999996e-01
    Z_551_0_1  Z_307_0_1  -6.4812323729993597e-03
    Z_551_0_1  Z_159_0_1  -1.9999999999999996e-01
    Z_551_0_1  Z_102_0_1  -1.9999999999999996e-01
    Z_551_0_2  Z_307_0_2  -6.4812323729993597e-03
    Z_551_0_2  Z_159_0_2  -1.9999999999999996e-01
    Z_551_0_2  Z_102_0_2  -1.9999999999999996e-01
    Z_551_0_3  Z_307_0_3  -6.4812323729993597e-03
    Z_551_0_3  Z_159_0_3  -1.9999999999999996e-01
    Z_551_0_3  Z_102_0_3  -1.9999999999999996e-01
    Z_551_0_4  Z_307_0_4  -6.4812323729993597e-03
    Z_551_0_4  Z_159_0_4  -1.9999999999999996e-01
    Z_551_0_4  Z_102_0_4  -1.9999999999999996e-01
    Z_307_0_0  Z_159_0_0  -2.8427809379498837e-02
    Z_307_0_0  Z_102_0_0  -7.9999313475781431e-02
    Z_307_0_1  Z_159_0_1  -2.8427809379498837e-02
    Z_307_0_1  Z_102_0_1  -7.9999313475781431e-02
    Z_307_0_2  Z_159_0_2  -2.8427809379498837e-02
    Z_307_0_2  Z_102_0_2  -7.9999313475781431e-02
    Z_307_0_3  Z_159_0_3  -2.8427809379498837e-02
    Z_307_0_3  Z_102_0_3  -7.9999313475781431e-02
    Z_307_0_4  Z_159_0_4  -2.8427809379498837e-02
    Z_307_0_4  Z_102_0_4  -7.9999313475781431e-02
    Z_159_0_0  Z_102_0_0  -1.9999999999999996e-01
    Z_159_0_1  Z_102_0_1  -1.9999999999999996e-01
    Z_159_0_2  Z_102_0_2  -1.9999999999999996e-01
    Z_159_0_3  Z_102_0_3  -1.9999999999999996e-01
    Z_159_0_4  Z_102_0_4  -1.9999999999999996e-01
ENDATA
